57 99 97 71 95 12 38 34 32 41 94 57 86 64 29 58 32 25 32 41 90 75 73 32 51 97 66 10 24 31 43 90 64 16 34 13 68 83 60 21 40 25 14 21 43 72 40 67 66 52 
56 47 41 10 72 54 29 66 26 83 14 80 56 69 62 79 87 41 95 77 96 31 98 75 75 18 30 37 28 11 86 20 29 74 22 73 81 77 12 74 30 46 93 90 29 64 69 66 58 90 
48 84 13 72 42 71 21 85 91 14 27 77 46 20 34 42 52 95 72 47 66 21 14 39 44 10 11 89 85 53 58 92 26 39 73 51 83 17 75 87 21 48 71 34 88 18 34 63 31 46 
54 64 46 37 31 62 52 33 87 35 73 64 32 11 96 96 10 20 83 23 48 62 58 91 39 70 41 65 58 12 91 10 22 87 68 90 85 34 97 50 83 36 36 43 13 37 14 64 61 98 
1336.00
